Ti2 O1
1.0
   2.9540794400000001    0.0000000000000000   -0.0000000000000000
  -1.4770387199999999    2.5583081299999999   -0.0000000000000000
   0.0000000000000000    0.0000000000000000    4.8223386300000000
Ti O
2 1
direct
   0.3333330000000000    0.6666670000000000    0.7300537600000000 Ti
   0.6666670000000000    0.3333330000000000    0.2699462400000000 Ti
   0.0000000000000000   -0.0000000000000000    0.0000000000000000 O
