&CONTROL
  pseudo_dir = '../',
  restart_mode = 'from_scratch',
/
&SYSTEM
  degauss = 0.002,
  ecutrho = 320,
  ecutwfc = 40,
  nspin = 1,
  occupations = 'smearing',
  smearing = 'gauss',
  ibrav = 0,
  nat = 80,
  ntyp = 3,
/
&ELECTRONS
  conv_thr = 8d-09,
  mixing_beta = 0.4,
/
&IONS
/
&CELL
/
ATOMIC_SPECIES
  O  15.9994 O.upf
  O+  15.9994 O.fch.upf
  Ti  47.8670 Ti.upf
ATOMIC_POSITIONS crystal
  Ti 0.172269 0.172269 0.172269
  Ti 0.077731 0.077731 0.077731
  Ti 0.327731 0.327731 0.327731
  Ti 0.422269 0.422269 0.422269
  Ti 0.172269 0.172269 0.672269
  Ti 0.077731 0.077731 0.577731
  Ti 0.327731 0.327731 0.827731
  Ti 0.422269 0.422269 0.922269
  Ti 0.172269 0.672269 0.172269
  Ti 0.077731 0.577731 0.077731
  Ti 0.327731 0.827731 0.327731
  Ti 0.422269 0.922269 0.422269
  Ti 0.172269 0.672269 0.672269
  Ti 0.077731 0.577731 0.577731
  Ti 0.327731 0.827731 0.827731
  Ti 0.422269 0.922269 0.922269
  Ti 0.672269 0.172269 0.172269
  Ti 0.577731 0.077731 0.077731
  Ti 0.827731 0.327731 0.327731
  Ti 0.922269 0.422269 0.422269
  Ti 0.672269 0.172269 0.672269
  Ti 0.577731 0.077731 0.577731
  Ti 0.827731 0.327731 0.827731
  Ti 0.922269 0.422269 0.922269
  Ti 0.672269 0.672269 0.172269
  Ti 0.577731 0.577731 0.077731
  Ti 0.827731 0.827731 0.327731
  Ti 0.922269 0.922269 0.422269
  Ti 0.672269 0.672269 0.672269
  Ti 0.577731 0.577731 0.577731
  Ti 0.827731 0.827731 0.827731
  Ti 0.922269 0.922269 0.922269
  O+ 0.282197 0.467803 0.125000
  O 0.125000 0.282197 0.467803
  O 0.467803 0.125000 0.282197
  O 0.217803 0.032197 0.375000
  O 0.375000 0.217803 0.032197
  O 0.032197 0.375000 0.217803
  O 0.282197 0.467803 0.625000
  O 0.125000 0.282197 0.967803
  O 0.467803 0.125000 0.782197
  O 0.217803 0.032197 0.875000
  O 0.375000 0.217803 0.532197
  O 0.032197 0.375000 0.717803
  O 0.282197 0.967803 0.125000
  O 0.125000 0.782197 0.467803
  O 0.467803 0.625000 0.282197
  O 0.217803 0.532197 0.375000
  O 0.375000 0.717803 0.032197
  O 0.032197 0.875000 0.217803
  O 0.282197 0.967803 0.625000
  O 0.125000 0.782197 0.967803
  O 0.467803 0.625000 0.782197
  O 0.217803 0.532197 0.875000
  O 0.375000 0.717803 0.532197
  O 0.032197 0.875000 0.717803
  O 0.782197 0.467803 0.125000
  O 0.625000 0.282197 0.467803
  O 0.967803 0.125000 0.282197
  O 0.717803 0.032197 0.375000
  O 0.875000 0.217803 0.032197
  O 0.532197 0.375000 0.217803
  O 0.782197 0.467803 0.625000
  O 0.625000 0.282197 0.967803
  O 0.967803 0.125000 0.782197
  O 0.717803 0.032197 0.875000
  O 0.875000 0.217803 0.532197
  O 0.532197 0.375000 0.717803
  O 0.782197 0.967803 0.125000
  O 0.625000 0.782197 0.467803
  O 0.967803 0.625000 0.282197
  O 0.717803 0.532197 0.375000
  O 0.875000 0.717803 0.032197
  O 0.532197 0.875000 0.217803
  O 0.782197 0.967803 0.625000
  O 0.625000 0.782197 0.967803
  O 0.967803 0.625000 0.782197
  O 0.717803 0.532197 0.875000
  O 0.875000 0.717803 0.532197
  O 0.532197 0.875000 0.717803
K_POINTS automatic
  1 1 1 0 0 0
CELL_PARAMETERS angstrom
  9.067972 0.050898 6.074571
  3.268735 8.458496 6.074571
  0.073789 0.050898 10.914355