&CONTROL
  pseudo_dir = '../',
  restart_mode = 'from_scratch',
/
&SYSTEM
  degauss = 0.002,
  ecutrho = 320,
  ecutwfc = 40,
  nspin = 1,
  occupations = 'smearing',
  smearing = 'gauss',
  ibrav = 0,
  nat = 96,
  ntyp = 3,
/
&ELECTRONS
  conv_thr = 9.6d-09,
  mixing_beta = 0.4,
/
&IONS
/
&CELL
/
ATOMIC_SPECIES
  O  15.9994 O.upf
  O+  15.9994 O.fch.upf
  Ti  47.8670 Ti.upf
ATOMIC_POSITIONS crystal
  Ti 0.068955 0.201291 0.628969
  Ti 0.318955 0.298709 0.871031
  Ti 0.181045 0.451291 0.371031
  Ti 0.431045 0.048709 0.128969
  Ti 0.431045 0.298709 0.371031
  Ti 0.181045 0.201291 0.128969
  Ti 0.318955 0.048709 0.628969
  Ti 0.068955 0.451291 0.871031
  Ti 0.068955 0.701291 0.628969
  Ti 0.318955 0.798709 0.871031
  Ti 0.181045 0.951291 0.371031
  Ti 0.431045 0.548709 0.128969
  Ti 0.431045 0.798709 0.371031
  Ti 0.181045 0.701291 0.128969
  Ti 0.318955 0.548709 0.628969
  Ti 0.068955 0.951291 0.871031
  Ti 0.568955 0.201291 0.628969
  Ti 0.818955 0.298709 0.871031
  Ti 0.681045 0.451291 0.371031
  Ti 0.931045 0.048709 0.128969
  Ti 0.931045 0.298709 0.371031
  Ti 0.681045 0.201291 0.128969
  Ti 0.818955 0.048709 0.628969
  Ti 0.568955 0.451291 0.871031
  Ti 0.568955 0.701291 0.628969
  Ti 0.818955 0.798709 0.871031
  Ti 0.681045 0.951291 0.371031
  Ti 0.931045 0.548709 0.128969
  Ti 0.931045 0.798709 0.371031
  Ti 0.681045 0.701291 0.128969
  Ti 0.818955 0.548709 0.628969
  Ti 0.568955 0.951291 0.871031
  O+ 0.232355 0.194997 0.730290
  O 0.482355 0.305003 0.769710
  O 0.017645 0.444997 0.269710
  O 0.267645 0.055003 0.230290
  O 0.267645 0.305003 0.269710
  O 0.017645 0.194997 0.230290
  O 0.482355 0.055003 0.730290
  O 0.232355 0.444997 0.769710
  O 0.408316 0.425594 0.989521
  O 0.158316 0.074406 0.510479
  O 0.341684 0.175594 0.010479
  O 0.091684 0.324406 0.489521
  O 0.091684 0.074406 0.010479
  O 0.341684 0.425594 0.489521
  O 0.158316 0.324406 0.989521
  O 0.408316 0.175594 0.510479
  O 0.232355 0.694997 0.730290
  O 0.482355 0.805003 0.769710
  O 0.017645 0.944997 0.269710
  O 0.267645 0.555003 0.230290
  O 0.267645 0.805003 0.269710
  O 0.017645 0.694997 0.230290
  O 0.482355 0.555003 0.730290
  O 0.232355 0.944997 0.769710
  O 0.408316 0.925594 0.989521
  O 0.158316 0.574406 0.510479
  O 0.341684 0.675594 0.010479
  O 0.091684 0.824406 0.489521
  O 0.091684 0.574406 0.010479
  O 0.341684 0.925594 0.489521
  O 0.158316 0.824406 0.989521
  O 0.408316 0.675594 0.510479
  O 0.732355 0.194997 0.730290
  O 0.982355 0.305003 0.769710
  O 0.517645 0.444997 0.269710
  O 0.767645 0.055003 0.230290
  O 0.767645 0.305003 0.269710
  O 0.517645 0.194997 0.230290
  O 0.982355 0.055003 0.730290
  O 0.732355 0.444997 0.769710
  O 0.908316 0.425594 0.989521
  O 0.658316 0.074406 0.510479
  O 0.841684 0.175594 0.010479
  O 0.591684 0.324406 0.489521
  O 0.591684 0.074406 0.010479
  O 0.841684 0.425594 0.489521
  O 0.658316 0.324406 0.989521
  O 0.908316 0.175594 0.510479
  O 0.732355 0.694997 0.730290
  O 0.982355 0.805003 0.769710
  O 0.517645 0.944997 0.269710
  O 0.767645 0.555003 0.230290
  O 0.767645 0.805003 0.269710
  O 0.517645 0.694997 0.230290
  O 0.982355 0.555003 0.730290
  O 0.732355 0.944997 0.769710
  O 0.908316 0.925594 0.989521
  O 0.658316 0.574406 0.510479
  O 0.841684 0.675594 0.010479
  O 0.591684 0.824406 0.489521
  O 0.591684 0.574406 0.010479
  O 0.841684 0.925594 0.489521
  O 0.658316 0.824406 0.989521
  O 0.908316 0.675594 0.510479
K_POINTS automatic
  1 1 1 0 0 0
CELL_PARAMETERS angstrom
  10.298238 0.000000 0.000000
  0.000000 10.918244 0.000000
  0.000000 0.000000 9.194203