Ti4 O5
1.0
   3.7947103699999989    0.0000000000000000    1.6814911500000000
   1.8973678999999990    4.6756273200000003    0.8407173300000000
   0.0031512400000000    0.0000310000000000    5.1154953799999996
Ti O
4 5
direct
   0.6086985200000000    0.1747529700000000    0.6078479999999991 Ti
   0.2165485200000000    0.3921520000000000    0.1747529700000000 Ti
   0.7834514800000000    0.6078479999999991    0.8252470300000000 Ti
   0.3913014800000000    0.8252470300000000    0.3921520000000000 Ti
   0.9088711400000000    0.7803782200000000    0.4018774900000000 O
   0.3107496300000000    0.5981225100000001    0.7803782200000000 O
   0.6892503700000000    0.4018774900000000    0.2196217800000000 O
   0.0911288600000000    0.2196217800000000    0.5981225100000001 O
   0.5000000000000000    0.0000000000000000    0.0000000000000000 O
