&CONTROL
  pseudo_dir = '../',
  restart_mode = 'from_scratch',
/
&SYSTEM
  degauss = 0.002,
  ecutrho = 320,
  ecutwfc = 40,
  nspin = 1,
  occupations = 'smearing',
  smearing = 'gauss',
  ibrav = 0,
  nat = 108,
  ntyp = 3,
/
&ELECTRONS
  conv_thr = 1.08d-08,
  mixing_beta = 0.4,
/
&IONS
/
&CELL
/
ATOMIC_SPECIES
  O  15.9994 O.upf
  O+  15.9994 O.fch.upf
  Ti  47.8670 Ti.upf
ATOMIC_POSITIONS crystal
  Ti 0.291667 0.208333 0.125000
  Ti 0.041667 0.125000 0.375000
  Ti 0.291667 0.208333 0.625000
  Ti 0.041667 0.125000 0.875000
  Ti 0.291667 0.541667 0.125000
  Ti 0.041667 0.458333 0.375000
  Ti 0.291667 0.541667 0.625000
  Ti 0.041667 0.458333 0.875000
  Ti 0.291667 0.875000 0.125000
  Ti 0.041667 0.791667 0.375000
  Ti 0.291667 0.875000 0.625000
  Ti 0.041667 0.791667 0.875000
  Ti 0.625000 0.208333 0.125000
  Ti 0.375000 0.125000 0.375000
  Ti 0.625000 0.208333 0.625000
  Ti 0.375000 0.125000 0.875000
  Ti 0.625000 0.541667 0.125000
  Ti 0.375000 0.458333 0.375000
  Ti 0.625000 0.541667 0.625000
  Ti 0.375000 0.458333 0.875000
  Ti 0.625000 0.875000 0.125000
  Ti 0.375000 0.791667 0.375000
  Ti 0.625000 0.875000 0.625000
  Ti 0.375000 0.791667 0.875000
  Ti 0.958333 0.208333 0.125000
  Ti 0.708333 0.125000 0.375000
  Ti 0.958333 0.208333 0.625000
  Ti 0.708333 0.125000 0.875000
  Ti 0.958333 0.541667 0.125000
  Ti 0.708333 0.458333 0.375000
  Ti 0.958333 0.541667 0.625000
  Ti 0.708333 0.458333 0.875000
  Ti 0.958333 0.875000 0.125000
  Ti 0.708333 0.791667 0.375000
  Ti 0.958333 0.875000 0.625000
  Ti 0.708333 0.791667 0.875000
  O+ 0.110718 0.194051 0.082152
  O 0.027384 0.277384 0.332152
  O 0.305949 0.055949 0.167848
  O 0.222616 0.139282 0.417848
  O 0.110718 0.194051 0.582152
  O 0.027384 0.277384 0.832152
  O 0.305949 0.055949 0.667848
  O 0.222616 0.139282 0.917848
  O 0.110718 0.527384 0.082152
  O 0.027384 0.610718 0.332152
  O 0.305949 0.389282 0.167848
  O 0.222616 0.472616 0.417848
  O 0.110718 0.527384 0.582152
  O 0.027384 0.610718 0.832152
  O 0.305949 0.389282 0.667848
  O 0.222616 0.472616 0.917848
  O 0.110718 0.860718 0.082152
  O 0.027384 0.944051 0.332152
  O 0.305949 0.722616 0.167848
  O 0.222616 0.805949 0.417848
  O 0.110718 0.860718 0.582152
  O 0.027384 0.944051 0.832152
  O 0.305949 0.722616 0.667848
  O 0.222616 0.805949 0.917848
  O 0.444051 0.194051 0.082152
  O 0.360718 0.277384 0.332152
  O 0.639282 0.055949 0.167848
  O 0.555949 0.139282 0.417848
  O 0.444051 0.194051 0.582152
  O 0.360718 0.277384 0.832152
  O 0.639282 0.055949 0.667848
  O 0.555949 0.139282 0.917848
  O 0.444051 0.527384 0.082152
  O 0.360718 0.610718 0.332152
  O 0.639282 0.389282 0.167848
  O 0.555949 0.472616 0.417848
  O 0.444051 0.527384 0.582152
  O 0.360718 0.610718 0.832152
  O 0.639282 0.389282 0.667848
  O 0.555949 0.472616 0.917848
  O 0.444051 0.860718 0.082152
  O 0.360718 0.944051 0.332152
  O 0.639282 0.722616 0.167848
  O 0.555949 0.805949 0.417848
  O 0.444051 0.860718 0.582152
  O 0.360718 0.944051 0.832152
  O 0.639282 0.722616 0.667848
  O 0.555949 0.805949 0.917848
  O 0.777384 0.194051 0.082152
  O 0.694051 0.277384 0.332152
  O 0.972616 0.055949 0.167848
  O 0.889282 0.139282 0.417848
  O 0.777384 0.194051 0.582152
  O 0.694051 0.277384 0.832152
  O 0.972616 0.055949 0.667848
  O 0.889282 0.139282 0.917848
  O 0.777384 0.527384 0.082152
  O 0.694051 0.610718 0.332152
  O 0.972616 0.389282 0.167848
  O 0.889282 0.472616 0.417848
  O 0.777384 0.527384 0.582152
  O 0.694051 0.610718 0.832152
  O 0.972616 0.389282 0.667848
  O 0.889282 0.472616 0.917848
  O 0.777384 0.860718 0.082152
  O 0.694051 0.944051 0.332152
  O 0.972616 0.722616 0.167848
  O 0.889282 0.805949 0.417848
  O 0.777384 0.860718 0.582152
  O 0.694051 0.944051 0.832152
  O 0.972616 0.722616 0.667848
  O 0.889282 0.805949 0.917848
K_POINTS automatic
  1 1 1 0 0 0
CELL_PARAMETERS angstrom
  10.643149 0.000000 -3.935966
  -1.455564 10.543148 -3.935966
  0.036050 0.041366 11.002766