Li4 Ti2 Co4 O10
1.0
   5.2343739999999999    0.0000000000000000    0.0000000000000000
   1.9955010000000000    4.8633990000000002    0.0000000000000000
   2.5852279999999999    0.0447100000000000    7.3138759999999996
Li Ti Co O
4 2 4 10
direct
   0.1019500000000000    0.5001169999999990    0.7970619999999990 Li
   0.1988540000000000    0.0009880000000000    0.5994349999999991 Li
   0.4991060000000000    0.4997959999999990    0.9992479999999990 Li
   0.7983070000000000    0.9993440000000000    0.4033850000000000 Li
   0.6926270000000000    0.5054240000000000    0.6029749999999990 Ti
   0.0022069999999990    0.0048600000000000    0.9971289999999990 Ti
   0.2995160000000000    0.4998200000000000    0.4003130000000000 Co
   0.3952650000000000    0.9996969999999999    0.2096519999999990 Co
   0.9003089999999990    0.4992069999999990    0.1998820000000000 Co
   0.6061259999999991    0.9968220000000000    0.7936440000000000 Co
   0.1444129999999990    0.7555069999999990    0.1877510000000000 O
   0.0385869999999990    0.2607460000000000    0.4075680000000000 O
   0.3473469999999990    0.7472900000000000    0.7997250000000000 O
   0.5459010000000000    0.7441880000000000    0.4133100000000000 O
   0.6677339999999991    0.2457309999999990    0.1878189999999990 O
   0.2385840000000000    0.2212690000000000    0.9979760000000000 O
   0.4746200000000000    0.2720690000000000    0.5999050000000000 O
   0.7644240000000000    0.7730779999999990    0.0030689999999990 O
   0.9294000000000000    0.7247509999999990    0.5994780000000000 O
   0.8547220000000000    0.2492970000000000    0.8006740000000000 O
