&CONTROL
  pseudo_dir = '../',
  restart_mode = 'from_scratch',
/
&SYSTEM
  degauss = 0.002,
  ecutrho = 320,
  ecutwfc = 40,
  nspin = 1,
  occupations = 'smearing',
  smearing = 'gauss',
  ibrav = 0,
  nat = 96,
  ntyp = 3,
/
&ELECTRONS
  conv_thr = 9.6d-09,
  mixing_beta = 0.4,
/
&IONS
/
&CELL
/
ATOMIC_SPECIES
  O  15.9994 O.upf
  O+  15.9994 O.fch.upf
  Ti  47.8670 Ti.upf
ATOMIC_POSITIONS crystal
  Ti 0.361282 0.143426 0.276404
  Ti 0.138718 0.106574 0.026404
  Ti 0.138718 0.356574 0.223596
  Ti 0.361282 0.393426 0.473596
  Ti 0.361282 0.143426 0.776404
  Ti 0.138718 0.106574 0.526404
  Ti 0.138718 0.356574 0.723596
  Ti 0.361282 0.393426 0.973596
  Ti 0.361282 0.643426 0.276404
  Ti 0.138718 0.606574 0.026404
  Ti 0.138718 0.856574 0.223596
  Ti 0.361282 0.893426 0.473596
  Ti 0.361282 0.643426 0.776404
  Ti 0.138718 0.606574 0.526404
  Ti 0.138718 0.856574 0.723596
  Ti 0.361282 0.893426 0.973596
  Ti 0.861282 0.143426 0.276404
  Ti 0.638718 0.106574 0.026404
  Ti 0.638718 0.356574 0.223596
  Ti 0.861282 0.393426 0.473596
  Ti 0.861282 0.143426 0.776404
  Ti 0.638718 0.106574 0.526404
  Ti 0.638718 0.356574 0.723596
  Ti 0.861282 0.393426 0.973596
  Ti 0.861282 0.643426 0.276404
  Ti 0.638718 0.606574 0.026404
  Ti 0.638718 0.856574 0.223596
  Ti 0.861282 0.893426 0.473596
  Ti 0.861282 0.643426 0.776404
  Ti 0.638718 0.606574 0.526404
  Ti 0.638718 0.856574 0.723596
  Ti 0.861282 0.893426 0.973596
  O+ 0.277320 0.016614 0.128816
  O 0.222680 0.233386 0.378816
  O 0.222680 0.483386 0.371184
  O 0.277320 0.266614 0.121184
  O 0.468081 0.324222 0.338483
  O 0.031919 0.425778 0.088483
  O 0.031919 0.175778 0.161517
  O 0.468081 0.074222 0.411517
  O 0.277320 0.016614 0.628816
  O 0.222680 0.233386 0.878816
  O 0.222680 0.483386 0.871184
  O 0.277320 0.266614 0.621184
  O 0.468081 0.324222 0.838483
  O 0.031919 0.425778 0.588483
  O 0.031919 0.175778 0.661517
  O 0.468081 0.074222 0.911517
  O 0.277320 0.516614 0.128816
  O 0.222680 0.733386 0.378816
  O 0.222680 0.983386 0.371184
  O 0.277320 0.766614 0.121184
  O 0.468081 0.824222 0.338483
  O 0.031919 0.925778 0.088483
  O 0.031919 0.675778 0.161517
  O 0.468081 0.574222 0.411517
  O 0.277320 0.516614 0.628816
  O 0.222680 0.733386 0.878816
  O 0.222680 0.983386 0.871184
  O 0.277320 0.766614 0.621184
  O 0.468081 0.824222 0.838483
  O 0.031919 0.925778 0.588483
  O 0.031919 0.675778 0.661517
  O 0.468081 0.574222 0.911517
  O 0.777320 0.016614 0.128816
  O 0.722680 0.233386 0.378816
  O 0.722680 0.483386 0.371184
  O 0.777320 0.266614 0.121184
  O 0.968081 0.324222 0.338483
  O 0.531919 0.425778 0.088483
  O 0.531919 0.175778 0.161517
  O 0.968081 0.074222 0.411517
  O 0.777320 0.016614 0.628816
  O 0.722680 0.233386 0.878816
  O 0.722680 0.483386 0.871184
  O 0.777320 0.266614 0.621184
  O 0.968081 0.324222 0.838483
  O 0.531919 0.425778 0.588483
  O 0.531919 0.175778 0.661517
  O 0.968081 0.074222 0.911517
  O 0.777320 0.516614 0.128816
  O 0.722680 0.733386 0.378816
  O 0.722680 0.983386 0.371184
  O 0.777320 0.766614 0.121184
  O 0.968081 0.824222 0.338483
  O 0.531919 0.925778 0.088483
  O 0.531919 0.675778 0.161517
  O 0.968081 0.574222 0.411517
  O 0.777320 0.516614 0.628816
  O 0.722680 0.733386 0.878816
  O 0.722680 0.983386 0.871184
  O 0.777320 0.766614 0.621184
  O 0.968081 0.824222 0.838483
  O 0.531919 0.925778 0.588483
  O 0.531919 0.675778 0.661517
  O 0.968081 0.574222 0.911517
K_POINTS automatic
  1 1 1 0 0 0
CELL_PARAMETERS angstrom
  9.624867 -0.101218 0.000000
  -1.621221 9.950787 0.000000
  0.000000 0.000000 9.743769