&CONTROL
  pseudo_dir = '../',
  restart_mode = 'from_scratch',
/
&SYSTEM
  degauss = 0.002,
  ecutrho = 320,
  ecutwfc = 40,
  nspin = 1,
  occupations = 'smearing',
  smearing = 'gauss',
  ibrav = 0,
  nat = 54,
  ntyp = 3,
/
&ELECTRONS
  conv_thr = 5.4d-09,
  mixing_beta = 0.4,
/
&IONS
/
&CELL
/
ATOMIC_SPECIES
  O  15.9994 O.upf
  O+  15.9994 O.fch.upf
  Ti  47.8670 Ti.upf
ATOMIC_POSITIONS crystal
  Ti 0.000000 0.000000 0.000000
  Ti -0.000000 0.000000 0.333333
  Ti -0.000000 0.000000 0.666667
  Ti -0.000000 0.333333 0.000000
  Ti -0.000000 0.333333 0.333333
  Ti -0.000000 0.333333 0.666667
  Ti -0.000000 0.666667 0.000000
  Ti -0.000000 0.666667 0.333333
  Ti -0.000000 0.666667 0.666667
  Ti 0.333333 -0.000000 0.000000
  Ti 0.333333 -0.000000 0.333333
  Ti 0.333333 -0.000000 0.666667
  Ti 0.333333 0.333333 0.000000
  Ti 0.333333 0.333333 0.333333
  Ti 0.333333 0.333333 0.666667
  Ti 0.333333 0.666667 0.000000
  Ti 0.333333 0.666667 0.333333
  Ti 0.333333 0.666667 0.666667
  Ti 0.666667 -0.000000 0.000000
  Ti 0.666667 -0.000000 0.333333
  Ti 0.666667 -0.000000 0.666667
  Ti 0.666667 0.333333 0.000000
  Ti 0.666667 0.333333 0.333333
  Ti 0.666667 0.333333 0.666667
  Ti 0.666667 0.666667 0.000000
  Ti 0.666667 0.666667 0.333333
  Ti 0.666667 0.666667 0.666667
  O+ 0.166667 0.166667 0.166667
  O 0.166667 0.166667 0.500000
  O 0.166667 0.166667 0.833333
  O 0.166667 0.500000 0.166667
  O 0.166667 0.500000 0.500000
  O 0.166667 0.500000 0.833333
  O 0.166667 0.833333 0.166667
  O 0.166667 0.833333 0.500000
  O 0.166667 0.833333 0.833333
  O 0.500000 0.166667 0.166667
  O 0.500000 0.166667 0.500000
  O 0.500000 0.166667 0.833333
  O 0.500000 0.500000 0.166667
  O 0.500000 0.500000 0.500000
  O 0.500000 0.500000 0.833333
  O 0.500000 0.833333 0.166667
  O 0.500000 0.833333 0.500000
  O 0.500000 0.833333 0.833333
  O 0.833333 0.166667 0.166667
  O 0.833333 0.166667 0.500000
  O 0.833333 0.166667 0.833333
  O 0.833333 0.500000 0.166667
  O 0.833333 0.500000 0.500000
  O 0.833333 0.500000 0.833333
  O 0.833333 0.833333 0.166667
  O 0.833333 0.833333 0.500000
  O 0.833333 0.833333 0.833333
K_POINTS automatic
  1 1 1 0 0 0
CELL_PARAMETERS angstrom
  -6.434055 -6.434055 0.000000
  -6.434055 0.000000 -6.434055
  0.000000 -6.434055 -6.434055