&CONTROL
  pseudo_dir = '../',
  restart_mode = 'from_scratch',
/
&SYSTEM
  degauss = 0.002,
  ecutrho = 320,
  ecutwfc = 40,
  nspin = 1,
  occupations = 'smearing',
  smearing = 'gauss',
  ibrav = 0,
  nat = 96,
  ntyp = 2,
/
&ELECTRONS
  conv_thr = 9.6d-09,
  mixing_beta = 0.4,
/
&IONS
/
&CELL
/
ATOMIC_SPECIES
  O  15.9994 O.upf
  Ti  47.8670 Ti.upf
ATOMIC_POSITIONS crystal
  Ti 0.083333 0.166667 0.365027
  Ti 0.166667 0.083333 0.134973
  Ti 0.083333 0.166667 0.865027
  Ti 0.166667 0.083333 0.634973
  Ti 0.083333 0.416667 0.365027
  Ti 0.166667 0.333333 0.134973
  Ti 0.083333 0.416667 0.865027
  Ti 0.166667 0.333333 0.634973
  Ti 0.083333 0.666667 0.365027
  Ti 0.166667 0.583333 0.134973
  Ti 0.083333 0.666667 0.865027
  Ti 0.166667 0.583333 0.634973
  Ti 0.083333 0.916667 0.365027
  Ti 0.166667 0.833333 0.134973
  Ti 0.083333 0.916667 0.865027
  Ti 0.166667 0.833333 0.634973
  Ti 0.333333 0.166667 0.365027
  Ti 0.416667 0.083333 0.134973
  Ti 0.333333 0.166667 0.865027
  Ti 0.416667 0.083333 0.634973
  Ti 0.333333 0.416667 0.365027
  Ti 0.416667 0.333333 0.134973
  Ti 0.333333 0.416667 0.865027
  Ti 0.416667 0.333333 0.634973
  Ti 0.333333 0.666667 0.365027
  Ti 0.416667 0.583333 0.134973
  Ti 0.333333 0.666667 0.865027
  Ti 0.416667 0.583333 0.634973
  Ti 0.333333 0.916667 0.365027
  Ti 0.416667 0.833333 0.134973
  Ti 0.333333 0.916667 0.865027
  Ti 0.416667 0.833333 0.634973
  Ti 0.583333 0.166667 0.365027
  Ti 0.666667 0.083333 0.134973
  Ti 0.583333 0.166667 0.865027
  Ti 0.666667 0.083333 0.634973
  Ti 0.583333 0.416667 0.365027
  Ti 0.666667 0.333333 0.134973
  Ti 0.583333 0.416667 0.865027
  Ti 0.666667 0.333333 0.634973
  Ti 0.583333 0.666667 0.365027
  Ti 0.666667 0.583333 0.134973
  Ti 0.583333 0.666667 0.865027
  Ti 0.666667 0.583333 0.634973
  Ti 0.583333 0.916667 0.365027
  Ti 0.666667 0.833333 0.134973
  Ti 0.583333 0.916667 0.865027
  Ti 0.666667 0.833333 0.634973
  Ti 0.833333 0.166667 0.365027
  Ti 0.916667 0.083333 0.134973
  Ti 0.833333 0.166667 0.865027
  Ti 0.916667 0.083333 0.634973
  Ti 0.833333 0.416667 0.365027
  Ti 0.916667 0.333333 0.134973
  Ti 0.833333 0.416667 0.865027
  Ti 0.916667 0.333333 0.634973
  Ti 0.833333 0.666667 0.365027
  Ti 0.916667 0.583333 0.134973
  Ti 0.833333 0.666667 0.865027
  Ti 0.916667 0.583333 0.634973
  Ti 0.833333 0.916667 0.365027
  Ti 0.916667 0.833333 0.134973
  Ti 0.833333 0.916667 0.865027
  Ti 0.916667 0.833333 0.634973
  O 0.000000 0.000000 0.000000
  O 0.000000 0.000000 0.500000
  O -0.000000 0.250000 0.000000
  O -0.000000 0.250000 0.500000
  O -0.000000 0.500000 0.000000
  O -0.000000 0.500000 0.500000
  O -0.000000 0.750000 0.000000
  O -0.000000 0.750000 0.500000
  O 0.250000 0.000000 0.000000
  O 0.250000 0.000000 0.500000
  O 0.250000 0.250000 0.000000
  O 0.250000 0.250000 0.500000
  O 0.250000 0.500000 0.000000
  O 0.250000 0.500000 0.500000
  O 0.250000 0.750000 0.000000
  O 0.250000 0.750000 0.500000
  O 0.500000 0.000000 0.000000
  O 0.500000 0.000000 0.500000
  O 0.500000 0.250000 0.000000
  O 0.500000 0.250000 0.500000
  O 0.500000 0.500000 0.000000
  O 0.500000 0.500000 0.500000
  O 0.500000 0.750000 0.000000
  O 0.500000 0.750000 0.500000
  O 0.750000 0.000000 0.000000
  O 0.750000 0.000000 0.500000
  O 0.750000 0.250000 0.000000
  O 0.750000 0.250000 0.500000
  O 0.750000 0.500000 0.000000
  O 0.750000 0.500000 0.500000
  O 0.750000 0.750000 0.000000
  O 0.750000 0.750000 0.500000
K_POINTS automatic
  1 1 1 0 0 0
CELL_PARAMETERS angstrom
  11.816318 0.000000 -0.000000
  -5.908155 10.233233 -0.000000
  0.000000 0.000000 9.644677