Ti4 O6
1.0
   4.5339862200000001    0.0254487700000000    3.0372856700000002
   1.6343676000000000    4.2292478899999999    3.0372856499999998
   0.0368945900000000    0.0254487600000000    5.4571774000000000
Ti O
4 6
direct
   0.3445374700000000    0.3445374700000000    0.3445374700000000 Ti
   0.1554625300000000    0.1554625300000000    0.1554625300000000 Ti
   0.6554625300000000    0.6554625300000000    0.6554625300000000 Ti
   0.8445374700000000    0.8445374700000000    0.8445374700000000 Ti
   0.5643944600000000    0.9356055400000001    0.2500000000000000 O
   0.2500000000000000    0.5643944600000000    0.9356055400000001 O
   0.9356055400000001    0.2500000000000000    0.5643944600000000 O
   0.4356055400000000    0.0643944600000000    0.7500000000000000 O
   0.7500000000000000    0.4356055400000000    0.0643944600000000 O
   0.0643944600000000    0.7500000000000000    0.4356055400000000 O
