&CONTROL
  pseudo_dir = '../',
  restart_mode = 'from_scratch',
/
&SYSTEM
  degauss = 0.002,
  ecutrho = 320,
  ecutwfc = 40,
  nspin = 1,
  occupations = 'smearing',
  smearing = 'gauss',
  ibrav = 0,
  nat = 108,
  ntyp = 3,
/
&ELECTRONS
  conv_thr = 1.08d-08,
  mixing_beta = 0.4,
/
&IONS
/
&CELL
/
ATOMIC_SPECIES
  O  15.9994 O.upf
  O+  15.9994 O.fch.upf
  Ti  47.8670 Ti.upf
ATOMIC_POSITIONS crystal
  Ti 0.202900 0.087376 0.303924
  Ti 0.072183 0.196076 0.087376
  Ti 0.261150 0.303924 0.412624
  Ti 0.130434 0.412624 0.196076
  Ti 0.202900 0.087376 0.803924
  Ti 0.072183 0.196076 0.587376
  Ti 0.261150 0.303924 0.912624
  Ti 0.130434 0.412624 0.696076
  Ti 0.202900 0.587376 0.303924
  Ti 0.072183 0.696076 0.087376
  Ti 0.261150 0.803924 0.412624
  Ti 0.130434 0.912624 0.196076
  Ti 0.202900 0.587376 0.803924
  Ti 0.072183 0.696076 0.587376
  Ti 0.261150 0.803924 0.912624
  Ti 0.130434 0.912624 0.696076
  Ti 0.536233 0.087376 0.303924
  Ti 0.405516 0.196076 0.087376
  Ti 0.594484 0.303924 0.412624
  Ti 0.463767 0.412624 0.196076
  Ti 0.536233 0.087376 0.803924
  Ti 0.405516 0.196076 0.587376
  Ti 0.594484 0.303924 0.912624
  Ti 0.463767 0.412624 0.696076
  Ti 0.536233 0.587376 0.303924
  Ti 0.405516 0.696076 0.087376
  Ti 0.594484 0.803924 0.412624
  Ti 0.463767 0.912624 0.196076
  Ti 0.536233 0.587376 0.803924
  Ti 0.405516 0.696076 0.587376
  Ti 0.594484 0.803924 0.912624
  Ti 0.463767 0.912624 0.696076
  Ti 0.869566 0.087376 0.303924
  Ti 0.738850 0.196076 0.087376
  Ti 0.927817 0.303924 0.412624
  Ti 0.797100 0.412624 0.196076
  Ti 0.869566 0.087376 0.803924
  Ti 0.738850 0.196076 0.587376
  Ti 0.927817 0.303924 0.912624
  Ti 0.797100 0.412624 0.696076
  Ti 0.869566 0.587376 0.303924
  Ti 0.738850 0.696076 0.087376
  Ti 0.927817 0.803924 0.412624
  Ti 0.797100 0.912624 0.196076
  Ti 0.869566 0.587376 0.803924
  Ti 0.738850 0.696076 0.587376
  Ti 0.927817 0.803924 0.912624
  Ti 0.797100 0.912624 0.696076
  O+ 0.302957 0.390189 0.200939
  O 0.103583 0.299061 0.390189
  O 0.229750 0.200939 0.109811
  O 0.030376 0.109811 0.299061
  O 0.166667 -0.000000 0.000000
  O 0.302957 0.390189 0.700939
  O 0.103583 0.299061 0.890189
  O 0.229750 0.200939 0.609811
  O 0.030376 0.109811 0.799061
  O 0.166667 -0.000000 0.500000
  O 0.302957 0.890189 0.200939
  O 0.103583 0.799061 0.390189
  O 0.229750 0.700939 0.109811
  O 0.030376 0.609811 0.299061
  O 0.166667 0.500000 0.000000
  O 0.302957 0.890189 0.700939
  O 0.103583 0.799061 0.890189
  O 0.229750 0.700939 0.609811
  O 0.030376 0.609811 0.799061
  O 0.166667 0.500000 0.500000
  O 0.636290 0.390189 0.200939
  O 0.436917 0.299061 0.390189
  O 0.563083 0.200939 0.109811
  O 0.363710 0.109811 0.299061
  O 0.500000 -0.000000 -0.000000
  O 0.636290 0.390189 0.700939
  O 0.436917 0.299061 0.890189
  O 0.563083 0.200939 0.609811
  O 0.363710 0.109811 0.799061
  O 0.500000 -0.000000 0.500000
  O 0.636290 0.890189 0.200939
  O 0.436917 0.799061 0.390189
  O 0.563083 0.700939 0.109811
  O 0.363710 0.609811 0.299061
  O 0.500000 0.500000 0.000000
  O 0.636290 0.890189 0.700939
  O 0.436917 0.799061 0.890189
  O 0.563083 0.700939 0.609811
  O 0.363710 0.609811 0.799061
  O 0.500000 0.500000 0.500000
  O 0.969624 0.390189 0.200939
  O 0.770250 0.299061 0.390189
  O 0.896417 0.200939 0.109811
  O 0.697043 0.109811 0.299061
  O 0.833333 -0.000000 0.000000
  O 0.969624 0.390189 0.700939
  O 0.770250 0.299061 0.890189
  O 0.896417 0.200939 0.609811
  O 0.697043 0.109811 0.799061
  O 0.833333 0.000000 0.500000
  O 0.969624 0.890189 0.200939
  O 0.770250 0.799061 0.390189
  O 0.896417 0.700939 0.109811
  O 0.697043 0.609811 0.299061
  O 0.833333 0.500000 0.000000
  O 0.969624 0.890189 0.700939
  O 0.770250 0.799061 0.890189
  O 0.896417 0.700939 0.609811
  O 0.697043 0.609811 0.799061
  O 0.833333 0.500000 0.500000
K_POINTS automatic
  1 1 1 0 0 0
CELL_PARAMETERS angstrom
  11.384131 0.000000 5.044473
  3.794736 9.351255 1.681435
  0.006302 0.000062 10.230991