&CONTROL
  pseudo_dir = '../',
  restart_mode = 'from_scratch',
/
&SYSTEM
  degauss = 0.002,
  ecutrho = 320,
  ecutwfc = 40,
  nspin = 1,
  occupations = 'smearing',
  smearing = 'gauss',
  ibrav = 0,
  nat = 96,
  ntyp = 3,
/
&ELECTRONS
  conv_thr = 9.6d-09,
  mixing_beta = 0.4,
/
&IONS
/
&CELL
/
ATOMIC_SPECIES
  O  15.9994 O.upf
  O+  15.9994 O.fch.upf
  Ti  47.8670 Ti.upf
ATOMIC_POSITIONS crystal
  Ti 0.249999 0.374996 0.374998
  Ti 0.250001 0.125002 0.125001
  Ti -0.000000 0.000000 0.250000
  Ti -0.000000 0.250001 0.000001
  Ti 0.249999 0.374996 0.874998
  Ti 0.250001 0.125002 0.625001
  Ti -0.000000 0.000000 0.750000
  Ti -0.000000 0.250001 0.500001
  Ti 0.249999 0.874996 0.374998
  Ti 0.250001 0.625002 0.125001
  Ti -0.000000 0.500000 0.250000
  Ti -0.000000 0.750001 0.000001
  Ti 0.249999 0.874996 0.874998
  Ti 0.250001 0.625002 0.625001
  Ti -0.000000 0.500000 0.750000
  Ti -0.000000 0.750001 0.500001
  Ti 0.749999 0.374996 0.374998
  Ti 0.750001 0.125002 0.125001
  Ti 0.500000 0.000000 0.250000
  Ti 0.500000 0.250001 0.000001
  Ti 0.749999 0.374996 0.874998
  Ti 0.750001 0.125002 0.625001
  Ti 0.500000 0.000000 0.750000
  Ti 0.500000 0.250001 0.500001
  Ti 0.749999 0.874996 0.374998
  Ti 0.750001 0.625002 0.125001
  Ti 0.500000 0.500000 0.250000
  Ti 0.500000 0.750001 0.000001
  Ti 0.749999 0.874996 0.874998
  Ti 0.750001 0.625002 0.625001
  Ti 0.500000 0.500000 0.750000
  Ti 0.500000 0.750001 0.500001
  O+ 0.152160 0.152313 0.250151
  O 0.097621 0.124791 0.472831
  O 0.152160 0.402009 -0.000151
  O 0.401960 0.124790 0.277170
  O 0.098040 0.375209 0.222830
  O 0.402379 0.375209 0.027169
  O 0.347840 0.097992 0.000152
  O 0.347840 0.347688 0.249849
  O 0.152160 0.152313 0.750151
  O 0.097621 0.124791 0.972831
  O 0.152160 0.402009 0.499849
  O 0.401960 0.124790 0.777170
  O 0.098040 0.375209 0.722830
  O 0.402379 0.375209 0.527169
  O 0.347840 0.097992 0.500152
  O 0.347840 0.347688 0.749849
  O 0.152160 0.652313 0.250151
  O 0.097621 0.624791 0.472831
  O 0.152160 0.902009 -0.000151
  O 0.401960 0.624790 0.277170
  O 0.098040 0.875209 0.222830
  O 0.402379 0.875209 0.027169
  O 0.347840 0.597992 0.000152
  O 0.347840 0.847688 0.249849
  O 0.152160 0.652313 0.750151
  O 0.097621 0.624791 0.972831
  O 0.152160 0.902009 0.499849
  O 0.401960 0.624790 0.777170
  O 0.098040 0.875209 0.722830
  O 0.402379 0.875209 0.527169
  O 0.347840 0.597992 0.500152
  O 0.347840 0.847688 0.749849
  O 0.652160 0.152313 0.250151
  O 0.597621 0.124791 0.472831
  O 0.652160 0.402009 -0.000151
  O 0.901960 0.124790 0.277170
  O 0.598040 0.375209 0.222830
  O 0.902379 0.375209 0.027169
  O 0.847840 0.097992 0.000152
  O 0.847840 0.347688 0.249849
  O 0.652160 0.152313 0.750151
  O 0.597621 0.124791 0.972831
  O 0.652160 0.402009 0.499849
  O 0.901960 0.124790 0.777170
  O 0.598040 0.375209 0.722830
  O 0.902379 0.375209 0.527169
  O 0.847840 0.097992 0.500152
  O 0.847840 0.347688 0.749849
  O 0.652160 0.652313 0.250151
  O 0.597621 0.624791 0.472831
  O 0.652160 0.902009 -0.000151
  O 0.901960 0.624790 0.277170
  O 0.598040 0.875209 0.222830
  O 0.902379 0.875209 0.027169
  O 0.847840 0.597992 0.000152
  O 0.847840 0.847688 0.249849
  O 0.652160 0.652313 0.750151
  O 0.597621 0.624791 0.972831
  O 0.652160 0.902009 0.499849
  O 0.901960 0.624790 0.777170
  O 0.598040 0.875209 0.722830
  O 0.902379 0.875209 0.527169
  O 0.847840 0.597992 0.500152
  O 0.847840 0.847688 0.749849
K_POINTS automatic
  1 1 1 0 0 0
CELL_PARAMETERS angstrom
  -5.918434 6.505352 6.504948
  5.918427 -6.505365 6.504952
  5.918428 6.505357 -6.504959