&CONTROL
  pseudo_dir = '../',
  restart_mode = 'from_scratch',
/
&SYSTEM
  degauss = 0.002,
  ecutrho = 320,
  ecutwfc = 40,
  nspin = 1,
  occupations = 'smearing',
  smearing = 'gauss',
  ibrav = 0,
  nat = 160,
  ntyp = 5,
/
&ELECTRONS
  conv_thr = 1.6d-08,
  mixing_beta = 0.4,
/
&IONS
/
&CELL
/
ATOMIC_SPECIES
  Co  58.9332 Co.upf
  Li  6.9410 Li.upf
  O  15.9994 O.upf
  O+  15.9994 O.fch.upf
  Ti  47.8670 Ti.upf
ATOMIC_POSITIONS crystal
  Li 0.050975 0.250058 0.398531
  Li 0.099427 0.000494 0.299717
  Li 0.249553 0.249898 0.499624
  Li 0.399153 0.499672 0.201692
  Li 0.050975 0.250058 0.898531
  Li 0.099427 0.000494 0.799717
  Li 0.249553 0.249898 0.999624
  Li 0.399153 0.499672 0.701692
  Li 0.050975 0.750058 0.398531
  Li 0.099427 0.500494 0.299717
  Li 0.249553 0.749898 0.499624
  Li 0.399153 0.999672 0.201692
  Li 0.050975 0.750058 0.898531
  Li 0.099427 0.500494 0.799717
  Li 0.249553 0.749898 0.999624
  Li 0.399153 0.999672 0.701692
  Li 0.550975 0.250058 0.398531
  Li 0.599427 0.000494 0.299717
  Li 0.749553 0.249898 0.499624
  Li 0.899153 0.499672 0.201692
  Li 0.550975 0.250058 0.898531
  Li 0.599427 0.000494 0.799717
  Li 0.749553 0.249898 0.999624
  Li 0.899153 0.499672 0.701692
  Li 0.550975 0.750058 0.398531
  Li 0.599427 0.500494 0.299717
  Li 0.749553 0.749898 0.499624
  Li 0.899153 0.999672 0.201692
  Li 0.550975 0.750058 0.898531
  Li 0.599427 0.500494 0.799717
  Li 0.749553 0.749898 0.999624
  Li 0.899153 0.999672 0.701692
  Ti 0.346313 0.252712 0.301487
  Ti 0.001103 0.002430 0.498564
  Ti 0.346313 0.252712 0.801487
  Ti 0.001103 0.002430 0.998564
  Ti 0.346313 0.752712 0.301487
  Ti 0.001103 0.502430 0.498564
  Ti 0.346314 0.752712 0.801487
  Ti 0.001103 0.502430 0.998564
  Ti 0.846314 0.252712 0.301487
  Ti 0.501103 0.002430 0.498564
  Ti 0.846314 0.252712 0.801487
  Ti 0.501103 0.002430 0.998564
  Ti 0.846313 0.752712 0.301487
  Ti 0.501103 0.502430 0.498564
  Ti 0.846314 0.752712 0.801487
  Ti 0.501103 0.502430 0.998564
  Co 0.149758 0.249910 0.200157
  Co 0.197632 0.499848 0.104826
  Co 0.450154 0.249603 0.099941
  Co 0.303063 0.498411 0.396822
  Co 0.149758 0.249910 0.700157
  Co 0.197632 0.499849 0.604826
  Co 0.450154 0.249603 0.599941
  Co 0.303063 0.498411 0.896822
  Co 0.149758 0.749910 0.200157
  Co 0.197632 0.999849 0.104826
  Co 0.450154 0.749603 0.099941
  Co 0.303063 0.998411 0.396822
  Co 0.149758 0.749910 0.700157
  Co 0.197632 0.999849 0.604826
  Co 0.450154 0.749603 0.599941
  Co 0.303063 0.998411 0.896822
  Co 0.649758 0.249910 0.200157
  Co 0.697632 0.499848 0.104826
  Co 0.950154 0.249603 0.099941
  Co 0.803063 0.498411 0.396822
  Co 0.649758 0.249910 0.700157
  Co 0.697632 0.499849 0.604826
  Co 0.950154 0.249603 0.599941
  Co 0.803063 0.498411 0.896822
  Co 0.649758 0.749910 0.200157
  Co 0.697632 0.999849 0.104826
  Co 0.950154 0.749603 0.099941
  Co 0.803063 0.998411 0.396822
  Co 0.649758 0.749910 0.700157
  Co 0.697632 0.999849 0.604826
  Co 0.950154 0.749603 0.599941
  Co 0.803063 0.998411 0.896822
  O 0.072206 0.377753 0.093876
  O+ 0.019293 0.130373 0.203784
  O 0.173673 0.373645 0.399863
  O 0.272950 0.372094 0.206655
  O 0.333867 0.122865 0.093909
  O 0.119292 0.110634 0.498988
  O 0.237310 0.136035 0.299953
  O 0.382212 0.386539 0.001534
  O 0.464700 0.362375 0.299739
  O 0.427361 0.124648 0.400337
  O 0.072206 0.377753 0.593876
  O 0.019293 0.130373 0.703784
  O 0.173673 0.373645 0.899863
  O 0.272951 0.372094 0.706655
  O 0.333867 0.122865 0.593909
  O 0.119292 0.110634 0.998988
  O 0.237310 0.136035 0.799953
  O 0.382212 0.386539 0.501534
  O 0.464700 0.362375 0.799739
  O 0.427361 0.124649 0.900337
  O 0.072206 0.877753 0.093876
  O 0.019293 0.630373 0.203784
  O 0.173673 0.873645 0.399863
  O 0.272950 0.872094 0.206655
  O 0.333867 0.622865 0.093909
  O 0.119292 0.610635 0.498988
  O 0.237310 0.636035 0.299953
  O 0.382212 0.886539 0.001534
  O 0.464700 0.862375 0.299739
  O 0.427361 0.624648 0.400337
  O 0.072206 0.877753 0.593876
  O 0.019293 0.630373 0.703784
  O 0.173673 0.873645 0.899863
  O 0.272951 0.872094 0.706655
  O 0.333867 0.622865 0.593909
  O 0.119292 0.610635 0.998988
  O 0.237310 0.636035 0.799953
  O 0.382212 0.886539 0.501534
  O 0.464700 0.862375 0.799739
  O 0.427361 0.624649 0.900337
  O 0.572206 0.377753 0.093876
  O 0.519293 0.130373 0.203784
  O 0.673673 0.373645 0.399863
  O 0.772950 0.372094 0.206655
  O 0.833867 0.122865 0.093909
  O 0.619292 0.110634 0.498988
  O 0.737310 0.136035 0.299953
  O 0.882212 0.386539 0.001534
  O 0.964700 0.362375 0.299739
  O 0.927361 0.124648 0.400337
  O 0.572206 0.377753 0.593876
  O 0.519293 0.130373 0.703784
  O 0.673673 0.373645 0.899863
  O 0.772950 0.372094 0.706655
  O 0.833867 0.122865 0.593909
  O 0.619292 0.110634 0.998988
  O 0.737310 0.136035 0.799953
  O 0.882212 0.386539 0.501534
  O 0.964700 0.362375 0.799739
  O 0.927361 0.124649 0.900337
  O 0.572206 0.877753 0.093876
  O 0.519293 0.630373 0.203784
  O 0.673673 0.873645 0.399863
  O 0.772950 0.872094 0.206655
  O 0.833867 0.622865 0.093909
  O 0.619292 0.610635 0.498988
  O 0.737310 0.636035 0.299953
  O 0.882212 0.886539 0.001534
  O 0.964700 0.862375 0.299739
  O 0.927361 0.624648 0.400337
  O 0.572206 0.877753 0.593876
  O 0.519293 0.630373 0.703784
  O 0.673673 0.873645 0.899863
  O 0.772950 0.872094 0.706655
  O 0.833867 0.622865 0.593909
  O 0.619292 0.610635 0.998988
  O 0.737310 0.636035 0.799953
  O 0.882212 0.886539 0.501534
  O 0.964700 0.862375 0.799739
  O 0.927361 0.624649 0.900337
K_POINTS automatic
  1 1 1 0 0 0
CELL_PARAMETERS angstrom
  10.468748 0.000000 0.000000
  3.991002 9.726798 0.000000
  5.170456 0.089420 14.627752